
        $ From http://www.csplib.org/Problems/prob009/data/helmut.pdf
        $ Problem number 182
        $ Sequence length : 25
        language ESSENCE' 1.0
        letting sizemaster be 556
        letting sizes be sequence(3,12,13,15,19,23,27,34,35,39,42,45,48,52,53,87,140,145,158,166,171,184,189,201,227)
        